(set-info :smt-lib-version 2.6)
(set-logic UF)
(set-info :source |Benchmarks from the paper: "Extending Sledgehammer with SMT Solvers" by Jasmin Blanchette, Sascha Bohme, and Lawrence C. Paulson, CADE 2011.  Translated to SMT2 by Andrew Reynolds and Morgan Deters.|)
(set-info :category "industrial")
(set-info :status unsat)
(declare-sort S1 0)
(declare-sort S2 0)
(declare-sort S3 0)
(declare-sort S4 0)
(declare-sort S5 0)
(declare-sort S6 0)
(declare-sort S7 0)
(declare-sort S8 0)
(declare-sort S9 0)
(declare-sort S10 0)
(declare-sort S11 0)
(declare-sort S12 0)
(declare-sort S13 0)
(declare-sort S14 0)
(declare-sort S15 0)
(declare-sort S16 0)
(declare-sort S17 0)
(declare-sort S18 0)
(declare-sort S19 0)
(declare-sort S20 0)
(declare-sort S21 0)
(declare-sort S22 0)
(declare-sort S23 0)
(declare-sort S24 0)
(declare-sort S25 0)
(declare-sort S26 0)
(declare-sort S27 0)
(declare-sort S28 0)
(declare-sort S29 0)
(declare-sort S30 0)
(declare-sort S31 0)
(declare-sort S32 0)
(declare-sort S33 0)
(declare-sort S34 0)
(declare-sort S35 0)
(declare-sort S36 0)
(declare-sort S37 0)
(declare-sort S38 0)
(declare-sort S39 0)
(declare-sort S40 0)
(declare-sort S41 0)
(declare-sort S42 0)
(declare-sort S43 0)
(declare-sort S44 0)
(declare-sort S45 0)
(declare-sort S46 0)
(declare-sort S47 0)
(declare-sort S48 0)
(declare-sort S49 0)
(declare-sort S50 0)
(declare-sort S51 0)
(declare-sort S52 0)
(declare-sort S53 0)
(declare-sort S54 0)
(declare-sort S55 0)
(declare-sort S56 0)
(declare-sort S57 0)
(declare-sort S58 0)
(declare-sort S59 0)
(declare-fun f1 () S1)
(declare-fun f2 () S1)
(declare-fun f3 (S2 S2) S1)
(declare-fun f4 (S4 S3) S2)
(declare-fun f5 () S4)
(declare-fun f6 () S2)
(declare-fun f7 (S5 S3) S3)
(declare-fun f8 (S6 S7) S5)
(declare-fun f9 () S6)
(declare-fun f10 (S8 S7) S7)
(declare-fun f11 (S9 S3) S8)
(declare-fun f12 () S9)
(declare-fun f13 () S3)
(declare-fun f14 () S3)
(declare-fun f15 () S7)
(declare-fun f16 (S10 S2) S2)
(declare-fun f17 (S11 S2) S10)
(declare-fun f18 () S11)
(declare-fun f19 () S11)
(declare-fun f20 () S10)
(declare-fun f21 () S7)
(declare-fun f22 () S7)
(declare-fun f23 () S3)
(declare-fun f24 (S13 S12) S14)
(declare-fun f25 () S13)
(declare-fun f26 (S16 S15) S17)
(declare-fun f27 () S16)
(declare-fun f28 (S19 S18) S20)
(declare-fun f29 () S19)
(declare-fun f30 (S22 S21) S10)
(declare-fun f31 () S22)
(declare-fun f32 (S23 S12) S12)
(declare-fun f33 (S24 S21) S23)
(declare-fun f34 () S24)
(declare-fun f35 (S25 S15) S15)
(declare-fun f36 (S26 S18) S25)
(declare-fun f37 () S26)
(declare-fun f38 (S29 S28) S28)
(declare-fun f39 (S30 S27) S29)
(declare-fun f40 () S30)
(declare-fun f41 (S31 S27) S27)
(declare-fun f42 (S32 S7) S31)
(declare-fun f43 () S32)
(declare-fun f44 (S17 S18) S18)
(declare-fun f45 (S34 S33) S17)
(declare-fun f46 () S34)
(declare-fun f47 (S14 S21) S21)
(declare-fun f48 (S35 S2) S14)
(declare-fun f49 () S35)
(declare-fun f50 () S33)
(declare-fun f51 () S18)
(declare-fun f52 () S27)
(declare-fun f53 () S21)
(declare-fun f54 () S12)
(declare-fun f55 (S36 S37) S37)
(declare-fun f56 (S38 S15) S36)
(declare-fun f57 () S38)
(declare-fun f58 () S15)
(declare-fun f59 () S37)
(declare-fun f60 (S39 S40) S40)
(declare-fun f61 (S41 S28) S39)
(declare-fun f62 () S41)
(declare-fun f63 () S28)
(declare-fun f64 () S40)
(declare-fun f65 () S2)
(declare-fun f66 (S20 S33) S33)
(declare-fun f67 (S42 S27) S8)
(declare-fun f68 () S42)
(declare-fun f69 (S43 S37) S25)
(declare-fun f70 () S43)
(declare-fun f71 (S44 S40) S29)
(declare-fun f72 () S44)
(declare-fun f73 (S45 S28) S31)
(declare-fun f74 () S45)
(declare-fun f75 (S46 S7) S8)
(declare-fun f76 () S46)
(declare-fun f77 (S47 S3) S5)
(declare-fun f78 () S47)
(declare-fun f79 (S48 S21) S14)
(declare-fun f80 () S48)
(declare-fun f81 (S49 S15) S25)
(declare-fun f82 () S49)
(declare-fun f83 (S50 S18) S17)
(declare-fun f84 () S50)
(declare-fun f85 (S51 S28) S29)
(declare-fun f86 () S51)
(declare-fun f87 (S52 S27) S31)
(declare-fun f88 () S52)
(declare-fun f89 (S54 S53) S53)
(declare-fun f90 (S55 S53) S54)
(declare-fun f91 () S55)
(declare-fun f92 (S56 S12) S54)
(declare-fun f93 () S56)
(declare-fun f94 (S57 S12) S23)
(declare-fun f95 () S57)
(declare-fun f96 (S58 S33) S20)
(declare-fun f97 () S58)
(declare-fun f98 (S59 S53) S23)
(declare-fun f99 () S59)
(assert (not (= f1 f2)))
(assert (not (exists ((?v0 S2)) (forall ((?v1 S3)) (=> (= (f3 ?v0 (f4 f5 ?v1)) f1) (= (f3 f6 (f4 f5 (f7 (f8 f9 (f10 (f11 f12 f13) (f10 (f11 f12 f14) f15))) ?v1))) f1))))))
(assert (forall ((?v0 S3)) (=> (= (f3 (f16 (f17 f18 (f16 (f17 f19 (f16 f20 f6)) (f4 f5 f13))) (f4 f5 f14)) (f4 f5 ?v0)) f1) (= (f3 f6 (f4 f5 (f7 (f8 f9 (f10 (f11 f12 f13) (f10 (f11 f12 f14) f15))) ?v0))) f1))))
(assert (not (not (= f15 f21))))
(assert (forall ((?v0 S3)) (=> (= (f3 (f16 (f17 f18 (f16 (f17 f19 (f16 f20 f6)) (f4 f5 f13))) (f4 f5 f14)) (f4 f5 ?v0)) f1) (= (f3 f6 (f4 f5 (f7 (f8 f9 (f10 (f11 f12 f13) (f10 (f11 f12 f14) f15))) ?v0))) f1))))
(assert (not (= (f10 (f11 f12 f14) f15) f21)))
(assert (=> (not (= f15 f21)) (exists ((?v0 S2)) (forall ((?v1 S3)) (=> (= (f3 ?v0 (f4 f5 ?v1)) f1) (= (f3 f6 (f4 f5 (f7 (f8 f9 (f10 (f11 f12 f13) (f10 (f11 f12 f14) f15))) ?v1))) f1))))))
(assert (not (= f22 f21)))
(assert (forall ((?v0 S2) (?v1 S7)) (exists ((?v2 S3)) (forall ((?v3 S3)) (let ((?v_0 (f8 f9 ?v1))) (=> (= (f3 (f4 f5 ?v3) ?v0) f1) (= (f3 (f4 f5 (f7 ?v_0 ?v2)) (f4 f5 (f7 ?v_0 ?v3))) f1)))))))
(assert (forall ((?v0 S2) (?v1 S3)) (=> (not (= f15 f21)) (exists ((?v2 S2)) (forall ((?v3 S3)) (=> (= (f3 ?v2 (f4 f5 ?v3)) f1) (= (f3 ?v0 (f4 f5 (f7 (f8 f9 (f10 (f11 f12 ?v1) f15)) ?v3))) f1)))))))
(assert (forall ((?v0 S2)) (= (f3 ?v0 ?v0) f1)))
(assert (not (= f14 f23)))
(assert (= f15 f21))
(assert (forall ((?v0 S7) (?v1 S7)) (= (= (f8 f9 ?v0) (f8 f9 ?v1)) (= ?v0 ?v1))))
(assert (forall ((?v0 S12) (?v1 S12)) (= (= (f24 f25 ?v0) (f24 f25 ?v1)) (= ?v0 ?v1))))
(assert (forall ((?v0 S15) (?v1 S15)) (= (= (f26 f27 ?v0) (f26 f27 ?v1)) (= ?v0 ?v1))))
(assert (forall ((?v0 S18) (?v1 S18)) (= (= (f28 f29 ?v0) (f28 f29 ?v1)) (= ?v0 ?v1))))
(assert (forall ((?v0 S21) (?v1 S21)) (= (= (f30 f31 ?v0) (f30 f31 ?v1)) (= ?v0 ?v1))))
(assert (forall ((?v0 S3) (?v1 S7) (?v2 S3) (?v3 S7)) (= (= (f10 (f11 f12 ?v0) ?v1) (f10 (f11 f12 ?v2) ?v3)) (and (= ?v0 ?v2) (= ?v1 ?v3)))))
(assert (forall ((?v0 S21) (?v1 S12) (?v2 S21) (?v3 S12)) (= (= (f32 (f33 f34 ?v0) ?v1) (f32 (f33 f34 ?v2) ?v3)) (and (= ?v0 ?v2) (= ?v1 ?v3)))))
(assert (forall ((?v0 S18) (?v1 S15) (?v2 S18) (?v3 S15)) (= (= (f35 (f36 f37 ?v0) ?v1) (f35 (f36 f37 ?v2) ?v3)) (and (= ?v0 ?v2) (= ?v1 ?v3)))))
(assert (forall ((?v0 S27) (?v1 S28) (?v2 S27) (?v3 S28)) (= (= (f38 (f39 f40 ?v0) ?v1) (f38 (f39 f40 ?v2) ?v3)) (and (= ?v0 ?v2) (= ?v1 ?v3)))))
(assert (forall ((?v0 S7) (?v1 S27) (?v2 S7) (?v3 S27)) (= (= (f41 (f42 f43 ?v0) ?v1) (f41 (f42 f43 ?v2) ?v3)) (and (= ?v0 ?v2) (= ?v1 ?v3)))))
(assert (forall ((?v0 S33) (?v1 S18) (?v2 S33) (?v3 S18)) (= (= (f44 (f45 f46 ?v0) ?v1) (f44 (f45 f46 ?v2) ?v3)) (and (= ?v0 ?v2) (= ?v1 ?v3)))))
(assert (forall ((?v0 S2) (?v1 S21) (?v2 S2) (?v3 S21)) (= (= (f47 (f48 f49 ?v0) ?v1) (f47 (f48 f49 ?v2) ?v3)) (and (= ?v0 ?v2) (= ?v1 ?v3)))))
(assert (forall ((?v0 S2)) (= (f3 ?v0 ?v0) f1)))
(assert (forall ((?v0 S2) (?v1 S2)) (or (= (f3 ?v0 ?v1) f1) (= (f3 ?v1 ?v0) f1))))
(assert (forall ((?v0 S2) (?v1 S2) (?v2 S2)) (=> (= (f3 ?v0 ?v1) f1) (=> (= (f3 ?v1 ?v2) f1) (= (f3 ?v0 ?v2) f1)))))
(assert (= (f10 (f11 f12 f23) f21) f21))
(assert (= (f44 (f45 f46 f50) f51) f51))
(assert (= (f41 (f42 f43 f21) f52) f52))
(assert (= (f32 (f33 f34 f53) f54) f54))
(assert (= (f55 (f56 f57 f58) f59) f59))
(assert (= (f60 (f61 f62 f63) f64) f64))
(assert (= (f38 (f39 f40 f52) f63) f63))
(assert (= (f35 (f36 f37 f51) f58) f58))
(assert (= (f47 (f48 f49 f65) f53) f53))
(assert (forall ((?v0 S3)) (= (f7 (f8 f9 f21) ?v0) f23)))
(assert (forall ((?v0 S33)) (= (f66 (f28 f29 f51) ?v0) f50)))
(assert (forall ((?v0 S7)) (= (f10 (f67 f68 f52) ?v0) f21)))
(assert (forall ((?v0 S21)) (= (f47 (f24 f25 f54) ?v0) f53)))
(assert (forall ((?v0 S15)) (= (f35 (f69 f70 f59) ?v0) f58)))
(assert (forall ((?v0 S28)) (= (f38 (f71 f72 f64) ?v0) f63)))
(assert (forall ((?v0 S27)) (= (f41 (f73 f74 f63) ?v0) f52)))
(assert (forall ((?v0 S18)) (= (f44 (f26 f27 f58) ?v0) f51)))
(assert (forall ((?v0 S2)) (= (f16 (f30 f31 f53) ?v0) f65)))
(assert (forall ((?v0 S3) (?v1 S7)) (= (= (f10 (f11 f12 ?v0) ?v1) f21) (and (= ?v0 f23) (= ?v1 f21)))))
(assert (forall ((?v0 S33) (?v1 S18)) (= (= (f44 (f45 f46 ?v0) ?v1) f51) (and (= ?v0 f50) (= ?v1 f51)))))
(assert (forall ((?v0 S7) (?v1 S27)) (= (= (f41 (f42 f43 ?v0) ?v1) f52) (and (= ?v0 f21) (= ?v1 f52)))))
(assert (forall ((?v0 S21) (?v1 S12)) (= (= (f32 (f33 f34 ?v0) ?v1) f54) (and (= ?v0 f53) (= ?v1 f54)))))
(assert (forall ((?v0 S15) (?v1 S37)) (= (= (f55 (f56 f57 ?v0) ?v1) f59) (and (= ?v0 f58) (= ?v1 f59)))))
(assert (forall ((?v0 S28) (?v1 S40)) (= (= (f60 (f61 f62 ?v0) ?v1) f64) (and (= ?v0 f63) (= ?v1 f64)))))
(assert (forall ((?v0 S27) (?v1 S28)) (= (= (f38 (f39 f40 ?v0) ?v1) f63) (and (= ?v0 f52) (= ?v1 f63)))))
(assert (forall ((?v0 S18) (?v1 S15)) (= (= (f35 (f36 f37 ?v0) ?v1) f58) (and (= ?v0 f51) (= ?v1 f58)))))
(assert (forall ((?v0 S2) (?v1 S21)) (= (= (f47 (f48 f49 ?v0) ?v1) f53) (and (= ?v0 f65) (= ?v1 f53)))))
(assert (forall ((?v0 S3) (?v1 S7) (?v2 S3) (?v3 S7)) (= (f10 (f75 f76 (f10 (f11 f12 ?v0) ?v1)) (f10 (f11 f12 ?v2) ?v3)) (f10 (f11 f12 (f7 (f77 f78 ?v0) ?v2)) (f10 (f75 f76 ?v1) ?v3)))))
(assert (forall ((?v0 S2) (?v1 S21) (?v2 S2) (?v3 S21)) (= (f47 (f79 f80 (f47 (f48 f49 ?v0) ?v1)) (f47 (f48 f49 ?v2) ?v3)) (f47 (f48 f49 (f16 (f17 f19 ?v0) ?v2)) (f47 (f79 f80 ?v1) ?v3)))))
(assert (forall ((?v0 S18) (?v1 S15) (?v2 S18) (?v3 S15)) (= (f35 (f81 f82 (f35 (f36 f37 ?v0) ?v1)) (f35 (f36 f37 ?v2) ?v3)) (f35 (f36 f37 (f44 (f83 f84 ?v0) ?v2)) (f35 (f81 f82 ?v1) ?v3)))))
(assert (forall ((?v0 S27) (?v1 S28) (?v2 S27) (?v3 S28)) (= (f38 (f85 f86 (f38 (f39 f40 ?v0) ?v1)) (f38 (f39 f40 ?v2) ?v3)) (f38 (f39 f40 (f41 (f87 f88 ?v0) ?v2)) (f38 (f85 f86 ?v1) ?v3)))))
(assert (forall ((?v0 S12) (?v1 S53) (?v2 S12) (?v3 S53)) (= (f89 (f90 f91 (f89 (f92 f93 ?v0) ?v1)) (f89 (f92 f93 ?v2) ?v3)) (f89 (f92 f93 (f32 (f94 f95 ?v0) ?v2)) (f89 (f90 f91 ?v1) ?v3)))))
(assert (forall ((?v0 S21) (?v1 S12) (?v2 S21) (?v3 S12)) (= (f32 (f94 f95 (f32 (f33 f34 ?v0) ?v1)) (f32 (f33 f34 ?v2) ?v3)) (f32 (f33 f34 (f47 (f79 f80 ?v0) ?v2)) (f32 (f94 f95 ?v1) ?v3)))))
(assert (forall ((?v0 S7) (?v1 S27) (?v2 S7) (?v3 S27)) (= (f41 (f87 f88 (f41 (f42 f43 ?v0) ?v1)) (f41 (f42 f43 ?v2) ?v3)) (f41 (f42 f43 (f10 (f75 f76 ?v0) ?v2)) (f41 (f87 f88 ?v1) ?v3)))))
(assert (forall ((?v0 S33) (?v1 S18) (?v2 S33) (?v3 S18)) (= (f44 (f83 f84 (f44 (f45 f46 ?v0) ?v1)) (f44 (f45 f46 ?v2) ?v3)) (f44 (f45 f46 (f66 (f96 f97 ?v0) ?v2)) (f44 (f83 f84 ?v1) ?v3)))))
(assert (forall ((?v0 S7) (?v1 S7) (?v2 S3)) (= (f7 (f8 f9 (f10 (f75 f76 ?v0) ?v1)) ?v2) (f7 (f77 f78 (f7 (f8 f9 ?v0) ?v2)) (f7 (f8 f9 ?v1) ?v2)))))
(assert (forall ((?v0 S21) (?v1 S21) (?v2 S2)) (= (f16 (f30 f31 (f47 (f79 f80 ?v0) ?v1)) ?v2) (f16 (f17 f19 (f16 (f30 f31 ?v0) ?v2)) (f16 (f30 f31 ?v1) ?v2)))))
(assert (forall ((?v0 S15) (?v1 S15) (?v2 S18)) (= (f44 (f26 f27 (f35 (f81 f82 ?v0) ?v1)) ?v2) (f44 (f83 f84 (f44 (f26 f27 ?v0) ?v2)) (f44 (f26 f27 ?v1) ?v2)))))
(assert (forall ((?v0 S28) (?v1 S28) (?v2 S27)) (= (f41 (f73 f74 (f38 (f85 f86 ?v0) ?v1)) ?v2) (f41 (f87 f88 (f41 (f73 f74 ?v0) ?v2)) (f41 (f73 f74 ?v1) ?v2)))))
(assert (forall ((?v0 S53) (?v1 S53) (?v2 S12)) (= (f32 (f98 f99 (f89 (f90 f91 ?v0) ?v1)) ?v2) (f32 (f94 f95 (f32 (f98 f99 ?v0) ?v2)) (f32 (f98 f99 ?v1) ?v2)))))
(assert (forall ((?v0 S12) (?v1 S12) (?v2 S21)) (= (f47 (f24 f25 (f32 (f94 f95 ?v0) ?v1)) ?v2) (f47 (f79 f80 (f47 (f24 f25 ?v0) ?v2)) (f47 (f24 f25 ?v1) ?v2)))))
(assert (forall ((?v0 S27) (?v1 S27) (?v2 S7)) (= (f10 (f67 f68 (f41 (f87 f88 ?v0) ?v1)) ?v2) (f10 (f75 f76 (f10 (f67 f68 ?v0) ?v2)) (f10 (f67 f68 ?v1) ?v2)))))
(assert (forall ((?v0 S18) (?v1 S18) (?v2 S33)) (= (f66 (f28 f29 (f44 (f83 f84 ?v0) ?v1)) ?v2) (f66 (f96 f97 (f66 (f28 f29 ?v0) ?v2)) (f66 (f28 f29 ?v1) ?v2)))))
(assert (forall ((?v0 S7)) (= (= (f8 f9 ?v0) (f8 f9 f21)) (= ?v0 f21))))
(assert (forall ((?v0 S12)) (= (= (f24 f25 ?v0) (f24 f25 f54)) (= ?v0 f54))))
(assert (forall ((?v0 S15)) (= (= (f26 f27 ?v0) (f26 f27 f58)) (= ?v0 f58))))
(assert (forall ((?v0 S18)) (= (= (f28 f29 ?v0) (f28 f29 f51)) (= ?v0 f51))))
(assert (forall ((?v0 S21)) (= (= (f30 f31 ?v0) (f30 f31 f53)) (= ?v0 f53))))
(assert (forall ((?v0 S2) (?v1 S2) (?v2 S2)) (let ((?v_0 (f17 f19 ?v2))) (=> (= (f3 ?v0 ?v1) f1) (= (f3 (f16 ?v_0 ?v0) (f16 ?v_0 ?v1)) f1)))))
(assert (forall ((?v0 S2) (?v1 S2)) (=> (=> (= (f3 ?v0 ?v1) f1) false) (=> (=> (= (f3 ?v1 ?v0) f1) false) false))))
(assert (forall ((?v0 S2) (?v1 S2) (?v2 S2)) (=> (= (f3 ?v0 ?v1) f1) (=> (= (f3 ?v2 ?v0) f1) (= (f3 ?v2 ?v1) f1)))))
(assert (forall ((?v0 S2) (?v1 S2)) (=> (= (f3 ?v0 ?v1) f1) (=> (= (f3 ?v1 ?v0) f1) (= ?v1 ?v0)))))
(assert (forall ((?v0 S2) (?v1 S2) (?v2 S2)) (=> (= (f3 ?v0 ?v1) f1) (=> (= (f3 ?v1 ?v2) f1) (= (f3 ?v0 ?v2) f1)))))
(assert (forall ((?v0 S2) (?v1 S2)) (=> (= (f3 ?v0 ?v1) f1) (=> (= (f3 ?v1 ?v0) f1) (= ?v0 ?v1)))))
(assert (forall ((?v0 S2) (?v1 S2) (?v2 S2)) (=> (= (f3 ?v0 ?v1) f1) (=> (= ?v0 ?v2) (= (f3 ?v2 ?v1) f1)))))
(assert (forall ((?v0 S2) (?v1 S2) (?v2 S2)) (=> (= (f3 ?v0 ?v1) f1) (=> (= ?v1 ?v2) (= (f3 ?v0 ?v2) f1)))))
(assert (forall ((?v0 S2) (?v1 S2) (?v2 S2)) (=> (= ?v0 ?v1) (=> (= (f3 ?v2 ?v1) f1) (= (f3 ?v2 ?v0) f1)))))
(assert (forall ((?v0 S2) (?v1 S2) (?v2 S2)) (=> (= ?v0 ?v1) (=> (= (f3 ?v1 ?v2) f1) (= (f3 ?v0 ?v2) f1)))))
(check-sat)
(exit)
